\ENCODING=ISO-8859-1
\Problem name: bSARP

Maximize
 obj: 11 x(0,9,0) + 11 x(0,9,1) + 12 x(0,10,0) + 12 x(0,10,1) + 10 x(0,11,0)
      + 10 x(0,11,1) + 19 x(0,17,0) + 19 x(0,17,1) + 10 x(1,9,0) + 10 x(1,9,1)
      + 11 x(1,10,0) + 11 x(1,10,1) + 18 x(1,17,0) + 18 x(1,17,1) + 23 x(2,9,0)
      + 23 x(2,9,1) + 22 x(2,11,0) + 22 x(2,11,1) + 5 x(3,0,0) + 5 x(3,0,1)
      + 4 x(3,1,0) + 4 x(3,1,1) + 4 x(3,2,0) + 4 x(3,2,1) - 12 x(3,6,0)
      - 12 x(3,6,1) + 6 x(3,9,0) + 6 x(3,9,1) + 5 x(3,10,0) + 5 x(3,10,1)
      + 6 x(3,11,0) + 6 x(3,11,1) + 11 x(3,12,0) + 11 x(3,12,1) + 11 x(3,13,0)
      + 11 x(3,13,1) + 11 x(3,14,0) + 11 x(3,14,1) + 13 x(3,17,0)
      + 13 x(3,17,1) + 24 x(4,0,0) + 24 x(4,0,1) + 7 x(4,6,0) + 7 x(4,6,1)
      + 25 x(4,9,0) + 25 x(4,9,1) + 30 x(4,12,0) + 30 x(4,12,1) + 30 x(4,14,0)
      + 30 x(4,14,1) + 10 x(5,0,0) + 10 x(5,0,1) + 9 x(5,1,0) + 9 x(5,1,1)
      - 7 x(5,6,0) - 7 x(5,6,1) + 11 x(5,9,0) + 11 x(5,9,1) + 16 x(5,12,0)
      + 16 x(5,12,1) + 3 x(6,0,0) + 3 x(6,0,1) + 3 x(6,1,0) + 3 x(6,1,1)
      + 5 x(6,2,0) + 5 x(6,2,1) + 4 x(6,9,0) + 4 x(6,9,1) + 5 x(6,10,0)
      + 5 x(6,10,1) + 4 x(6,11,0) + 4 x(6,11,1) - 2 x(6,12,0) - 2 x(6,12,1)
      - 2 x(6,13,0) - 2 x(6,13,1) - 2 x(6,14,0) - 2 x(6,14,1) + 19 x(6,17,0)
      + 19 x(6,17,1) + 13 x(7,0,0) + 13 x(7,0,1) + 14 x(7,9,0) + 14 x(7,9,1)
      + 8 x(7,12,0) + 8 x(7,12,1) + 10 x(8,0,0) + 10 x(8,0,1) + 11 x(8,9,0)
      + 11 x(8,9,1) + 5 x(8,12,0) + 5 x(8,12,1) + 25 x(9,17,0) + 25 x(9,17,1)
      + 24 x(11,17,0) + 24 x(11,17,1) + 17 x(12,0,0) + 17 x(12,0,1)
      + 16 x(12,1,0) + 16 x(12,1,1) + 17 x(12,2,0) + 17 x(12,2,1)
      + 20 x(12,9,0) + 20 x(12,9,1) + 19 x(12,10,0) + 19 x(12,10,1)
      + 20 x(12,11,0) + 20 x(12,11,1) + 22 x(12,17,0) + 22 x(12,17,1)
      + 14 x(13,0,0) + 14 x(13,0,1) + 15 x(13,2,0) + 15 x(13,2,1)
      + 19 x(13,9,0) + 19 x(13,9,1) + 18 x(13,10,0) + 18 x(13,10,1)
      + 20 x(13,17,0) + 20 x(13,17,1) + 9 x(14,0,0) + 9 x(14,0,1)
      + 13 x(14,9,0) + 13 x(14,9,1) + 12 x(14,10,0) + 12 x(14,10,1)
      + 18 x(14,17,0) + 18 x(14,17,1) - 6 x(15,0,0) - 6 x(15,0,1) - 8 x(15,2,0)
      - 8 x(15,2,1) - 2 x(15,3,0) - 2 x(15,3,1) - 2 x(15,4,0) - 2 x(15,4,1)
      - 26 x(15,6,0) - 26 x(15,6,1) - 24 x(15,7,0) - 24 x(15,7,1)
      - 25 x(15,8,0) - 25 x(15,8,1) - 8 x(15,9,0) - 8 x(15,9,1) - 8 x(15,10,0)
      - 8 x(15,10,1) - 7 x(15,12,0) - 7 x(15,12,1) - 23 x(16,0,0)
      - 23 x(16,0,1) - 21 x(16,2,0) - 21 x(16,2,1) - 5 x(16,6,0) - 5 x(16,6,1)
      - 7 x(16,7,0) - 7 x(16,7,1) - 4 x(16,8,0) - 4 x(16,8,1) - 22 x(16,9,0)
      - 22 x(16,9,1) - 21 x(16,10,0) - 21 x(16,10,1) - 29 x(16,12,0)
      - 29 x(16,12,1)
Subject To
 Constraint1_0:    x(0,9,0) + x(0,9,1) + x(0,10,0) + x(0,10,1) + x(0,11,0)
                   + x(0,11,1) + x(0,17,0) + x(0,17,1) + x(1,9,0) + x(1,9,1)
                   + x(1,10,0) + x(1,10,1) + x(1,17,0) + x(1,17,1) + x(2,9,0)
                   + x(2,9,1) + x(2,11,0) + x(2,11,1)  = 1
 Constraint1_1:    x(3,0,0) + x(3,0,1) + x(3,1,0) + x(3,1,1) + x(3,2,0)
                   + x(3,2,1) + x(3,6,0) + x(3,6,1) + x(3,9,0) + x(3,9,1)
                   + x(3,10,0) + x(3,10,1) + x(3,11,0) + x(3,11,1) + x(3,12,0)
                   + x(3,12,1) + x(3,13,0) + x(3,13,1) + x(3,14,0) + x(3,14,1)
                   + x(3,17,0) + x(3,17,1) + x(4,0,0) + x(4,0,1) + x(4,6,0)
                   + x(4,6,1) + x(4,9,0) + x(4,9,1) + x(4,12,0) + x(4,12,1)
                   + x(4,14,0) + x(4,14,1) + x(5,0,0) + x(5,0,1) + x(5,1,0)
                   + x(5,1,1) + x(5,6,0) + x(5,6,1) + x(5,9,0) + x(5,9,1)
                   + x(5,12,0) + x(5,12,1)  = 1
 Constraint1_2:    x(6,0,0) + x(6,0,1) + x(6,1,0) + x(6,1,1) + x(6,2,0)
                   + x(6,2,1) + x(6,9,0) + x(6,9,1) + x(6,10,0) + x(6,10,1)
                   + x(6,11,0) + x(6,11,1) + x(6,12,0) + x(6,12,1) + x(6,13,0)
                   + x(6,13,1) + x(6,14,0) + x(6,14,1) + x(6,17,0) + x(6,17,1)
                   + x(7,0,0) + x(7,0,1) + x(7,9,0) + x(7,9,1) + x(7,12,0)
                   + x(7,12,1) + x(8,0,0) + x(8,0,1) + x(8,9,0) + x(8,9,1)
                   + x(8,12,0) + x(8,12,1)  = 1
 Constraint1_3:    x(9,17,0) + x(9,17,1) + x(11,17,0) + x(11,17,1)  = 1
 Constraint1_4:    x(12,0,0) + x(12,0,1) + x(12,1,0) + x(12,1,1) + x(12,2,0)
                   + x(12,2,1) + x(12,9,0) + x(12,9,1) + x(12,10,0)
                   + x(12,10,1) + x(12,11,0) + x(12,11,1) + x(12,17,0)
                   + x(12,17,1) + x(13,0,0) + x(13,0,1) + x(13,2,0) + x(13,2,1)
                   + x(13,9,0) + x(13,9,1) + x(13,10,0) + x(13,10,1)
                   + x(13,17,0) + x(13,17,1) + x(14,0,0) + x(14,0,1)
                   + x(14,9,0) + x(14,9,1) + x(14,10,0) + x(14,10,1)
                   + x(14,17,0) + x(14,17,1)  = 1
 Constraint2_0:    x(3,0,0) + x(3,0,1) + x(3,1,0) + x(3,1,1) + x(3,2,0)
                   + x(3,2,1) + x(4,0,0) + x(4,0,1) + x(5,0,0) + x(5,0,1)
                   + x(5,1,0) + x(5,1,1) + x(6,0,0) + x(6,0,1) + x(6,1,0)
                   + x(6,1,1) + x(6,2,0) + x(6,2,1) + x(7,0,0) + x(7,0,1)
                   + x(8,0,0) + x(8,0,1) + x(12,0,0) + x(12,0,1) + x(12,1,0)
                   + x(12,1,1) + x(12,2,0) + x(12,2,1) + x(13,0,0) + x(13,0,1)
                   + x(13,2,0) + x(13,2,1) + x(14,0,0) + x(14,0,1) + x(15,0,0)
                   + x(15,0,1) + x(15,2,0) + x(15,2,1) + x(16,0,0) + x(16,0,1)
                   + x(16,2,0) + x(16,2,1)  = 1
 Constraint2_1:    x(15,3,0) + x(15,3,1) + x(15,4,0) + x(15,4,1)  = 1
 Constraint2_2:    x(3,6,0) + x(3,6,1) + x(4,6,0) + x(4,6,1) + x(5,6,0)
                   + x(5,6,1) + x(15,6,0) + x(15,6,1) + x(15,7,0) + x(15,7,1)
                   + x(15,8,0) + x(15,8,1) + x(16,6,0) + x(16,6,1) + x(16,7,0)
                   + x(16,7,1) + x(16,8,0) + x(16,8,1)  = 1
 Constraint2_3:    x(0,9,0) + x(0,9,1) + x(0,10,0) + x(0,10,1) + x(0,11,0)
                   + x(0,11,1) + x(1,9,0) + x(1,9,1) + x(1,10,0) + x(1,10,1)
                   + x(2,9,0) + x(2,9,1) + x(2,11,0) + x(2,11,1) + x(3,9,0)
                   + x(3,9,1) + x(3,10,0) + x(3,10,1) + x(3,11,0) + x(3,11,1)
                   + x(4,9,0) + x(4,9,1) + x(5,9,0) + x(5,9,1) + x(6,9,0)
                   + x(6,9,1) + x(6,10,0) + x(6,10,1) + x(6,11,0) + x(6,11,1)
                   + x(7,9,0) + x(7,9,1) + x(8,9,0) + x(8,9,1) + x(12,9,0)
                   + x(12,9,1) + x(12,10,0) + x(12,10,1) + x(12,11,0)
                   + x(12,11,1) + x(13,9,0) + x(13,9,1) + x(13,10,0)
                   + x(13,10,1) + x(14,9,0) + x(14,9,1) + x(14,10,0)
                   + x(14,10,1) + x(15,9,0) + x(15,9,1) + x(15,10,0)
                   + x(15,10,1) + x(16,9,0) + x(16,9,1) + x(16,10,0)
                   + x(16,10,1)  = 1
 Constraint2_4:    x(3,12,0) + x(3,12,1) + x(3,13,0) + x(3,13,1) + x(3,14,0)
                   + x(3,14,1) + x(4,12,0) + x(4,12,1) + x(4,14,0) + x(4,14,1)
                   + x(5,12,0) + x(5,12,1) + x(6,12,0) + x(6,12,1) + x(6,13,0)
                   + x(6,13,1) + x(6,14,0) + x(6,14,1) + x(7,12,0) + x(7,12,1)
                   + x(8,12,0) + x(8,12,1) + x(15,12,0) + x(15,12,1)
                   + x(16,12,0) + x(16,12,1)  = 1
 Constraint3_0:    x(15,0,0) + x(15,2,0) + x(15,3,0) + x(15,4,0) + x(15,6,0)
                   + x(15,7,0) + x(15,8,0) + x(15,9,0) + x(15,10,0)
                   + x(15,12,0)  = 1
 Constraint3_1:    x(16,0,1) + x(16,2,1) + x(16,6,1) + x(16,7,1) + x(16,8,1)
                   + x(16,9,1) + x(16,10,1) + x(16,12,1)  = 1
 Constraint4_0:    x(0,17,0) + x(1,17,0) + x(3,17,0) + x(6,17,0) + x(9,17,0)
                   + x(11,17,0) + x(12,17,0) + x(13,17,0) + x(14,17,0)  = 1
 Constraint4_1:    x(0,17,1) + x(1,17,1) + x(3,17,1) + x(6,17,1) + x(9,17,1)
                   + x(11,17,1) + x(12,17,1) + x(13,17,1) + x(14,17,1)  = 1
 Constraint5_5:    x(8,0,0) + x(8,0,1) + x(8,9,0) + x(8,9,1) + x(8,12,0)
                   + x(8,12,1) <= 1
 Constraint5_6:    x(7,0,0) + x(7,0,1) + x(7,9,0) + x(7,9,1) + x(7,12,0)
                   + x(7,12,1) <= 1
 Constraint5_7:    x(2,9,0) + x(2,9,1) + x(2,11,0) + x(2,11,1) <= 1
 Constraint5_8:    x(4,0,0) + x(4,0,1) + x(4,6,0) + x(4,6,1) + x(4,9,0)
                   + x(4,9,1) + x(4,12,0) + x(4,12,1) + x(4,14,0) + x(4,14,1)
                   <= 1
 Constraint5_9:    x(5,0,0) + x(5,0,1) + x(5,1,0) + x(5,1,1) + x(5,6,0)
                   + x(5,6,1) + x(5,9,0) + x(5,9,1) + x(5,12,0) + x(5,12,1)
                   <= 1
 Constraint5_10:   <= 1
 Constraint5_11:   <= 1
 Constraint5_12:   x(11,17,0) + x(11,17,1) + x(13,0,0) + x(13,0,1) + x(13,2,0)
                   + x(13,2,1) + x(13,9,0) + x(13,9,1) + x(13,10,0)
                   + x(13,10,1) + x(13,17,0) + x(13,17,1) <= 1
 Constraint5_13:   x(14,0,0) + x(14,0,1) + x(14,9,0) + x(14,9,1) + x(14,10,0)
                   + x(14,10,1) + x(14,17,0) + x(14,17,1) <= 1
 Constraint5_14:   x(1,9,0) + x(1,9,1) + x(1,10,0) + x(1,10,1) + x(1,17,0)
                   + x(1,17,1) <= 1
 Constraint6_0_0:  x(0,9,0) + x(0,10,0) + x(0,11,0) + x(0,17,0) - x(3,0,0)
                   - x(4,0,0) - x(5,0,0) - x(6,0,0) - x(7,0,0) - x(8,0,0)
                   - x(12,0,0) - x(13,0,0) - x(14,0,0) - x(15,0,0) - x(16,0,0)
                    = 0
 Constraint6_0_1:  x(0,9,1) + x(0,10,1) + x(0,11,1) + x(0,17,1) - x(3,0,1)
                   - x(4,0,1) - x(5,0,1) - x(6,0,1) - x(7,0,1) - x(8,0,1)
                   - x(12,0,1) - x(13,0,1) - x(14,0,1) - x(15,0,1) - x(16,0,1)
                    = 0
 Constraint6_1_0:  x(1,9,0) + x(1,10,0) + x(1,17,0) - x(3,1,0) - x(5,1,0)
                   - x(6,1,0) - x(12,1,0)  = 0
 Constraint6_1_1:  x(1,9,1) + x(1,10,1) + x(1,17,1) - x(3,1,1) - x(5,1,1)
                   - x(6,1,1) - x(12,1,1)  = 0
 Constraint6_2_0:  x(2,9,0) + x(2,11,0) - x(3,2,0) - x(6,2,0) - x(12,2,0)
                   - x(13,2,0) - x(15,2,0) - x(16,2,0)  = 0
 Constraint6_2_1:  x(2,9,1) + x(2,11,1) - x(3,2,1) - x(6,2,1) - x(12,2,1)
                   - x(13,2,1) - x(15,2,1) - x(16,2,1)  = 0
 Constraint6_3_0:  x(3,0,0) + x(3,1,0) + x(3,2,0) + x(3,6,0) + x(3,9,0)
                   + x(3,10,0) + x(3,11,0) + x(3,12,0) + x(3,13,0) + x(3,14,0)
                   + x(3,17,0) - x(15,3,0)  = 0
 Constraint6_3_1:  x(3,0,1) + x(3,1,1) + x(3,2,1) + x(3,6,1) + x(3,9,1)
                   + x(3,10,1) + x(3,11,1) + x(3,12,1) + x(3,13,1) + x(3,14,1)
                   + x(3,17,1) - x(15,3,1)  = 0
 Constraint6_4_0:  x(4,0,0) + x(4,6,0) + x(4,9,0) + x(4,12,0) + x(4,14,0)
                   - x(15,4,0)  = 0
 Constraint6_4_1:  x(4,0,1) + x(4,6,1) + x(4,9,1) + x(4,12,1) + x(4,14,1)
                   - x(15,4,1)  = 0
 Constraint6_5_0:  x(5,0,0) + x(5,1,0) + x(5,6,0) + x(5,9,0) + x(5,12,0)  = 0
 Constraint6_5_1:  x(5,0,1) + x(5,1,1) + x(5,6,1) + x(5,9,1) + x(5,12,1)  = 0
 Constraint6_6_0:  - x(3,6,0) - x(4,6,0) - x(5,6,0) + x(6,0,0) + x(6,1,0)
                   + x(6,2,0) + x(6,9,0) + x(6,10,0) + x(6,11,0) + x(6,12,0)
                   + x(6,13,0) + x(6,14,0) + x(6,17,0) - x(15,6,0) - x(16,6,0)
                    = 0
 Constraint6_6_1:  - x(3,6,1) - x(4,6,1) - x(5,6,1) + x(6,0,1) + x(6,1,1)
                   + x(6,2,1) + x(6,9,1) + x(6,10,1) + x(6,11,1) + x(6,12,1)
                   + x(6,13,1) + x(6,14,1) + x(6,17,1) - x(15,6,1) - x(16,6,1)
                    = 0
 Constraint6_7_0:  x(7,0,0) + x(7,9,0) + x(7,12,0) - x(15,7,0) - x(16,7,0)  = 0
 Constraint6_7_1:  x(7,0,1) + x(7,9,1) + x(7,12,1) - x(15,7,1) - x(16,7,1)  = 0
 Constraint6_8_0:  x(8,0,0) + x(8,9,0) + x(8,12,0) - x(15,8,0) - x(16,8,0)  = 0
 Constraint6_8_1:  x(8,0,1) + x(8,9,1) + x(8,12,1) - x(15,8,1) - x(16,8,1)  = 0
 Constraint6_9_0:  - x(0,9,0) - x(1,9,0) - x(2,9,0) - x(3,9,0) - x(4,9,0)
                   - x(5,9,0) - x(6,9,0) - x(7,9,0) - x(8,9,0) + x(9,17,0)
                   - x(12,9,0) - x(13,9,0) - x(14,9,0) - x(15,9,0) - x(16,9,0)
                    = 0
 Constraint6_9_1:  - x(0,9,1) - x(1,9,1) - x(2,9,1) - x(3,9,1) - x(4,9,1)
                   - x(5,9,1) - x(6,9,1) - x(7,9,1) - x(8,9,1) + x(9,17,1)
                   - x(12,9,1) - x(13,9,1) - x(14,9,1) - x(15,9,1) - x(16,9,1)
                    = 0
 Constraint6_10_0: - x(0,10,0) - x(1,10,0) - x(3,10,0) - x(6,10,0) - x(12,10,0)
                   - x(13,10,0) - x(14,10,0) - x(15,10,0) - x(16,10,0)  = 0
 Constraint6_10_1: - x(0,10,1) - x(1,10,1) - x(3,10,1) - x(6,10,1) - x(12,10,1)
                   - x(13,10,1) - x(14,10,1) - x(15,10,1) - x(16,10,1)  = 0
 Constraint6_11_0: - x(0,11,0) - x(2,11,0) - x(3,11,0) - x(6,11,0) + x(11,17,0)
                   - x(12,11,0)  = 0
 Constraint6_11_1: - x(0,11,1) - x(2,11,1) - x(3,11,1) - x(6,11,1) + x(11,17,1)
                   - x(12,11,1)  = 0
 Constraint6_12_0: - x(3,12,0) - x(4,12,0) - x(5,12,0) - x(6,12,0) - x(7,12,0)
                   - x(8,12,0) + x(12,0,0) + x(12,1,0) + x(12,2,0) + x(12,9,0)
                   + x(12,10,0) + x(12,11,0) + x(12,17,0) - x(15,12,0)
                   - x(16,12,0)  = 0
 Constraint6_12_1: - x(3,12,1) - x(4,12,1) - x(5,12,1) - x(6,12,1) - x(7,12,1)
                   - x(8,12,1) + x(12,0,1) + x(12,1,1) + x(12,2,1) + x(12,9,1)
                   + x(12,10,1) + x(12,11,1) + x(12,17,1) - x(15,12,1)
                   - x(16,12,1)  = 0
 Constraint6_13_0: - x(3,13,0) - x(6,13,0) + x(13,0,0) + x(13,2,0) + x(13,9,0)
                   + x(13,10,0) + x(13,17,0)  = 0
 Constraint6_13_1: - x(3,13,1) - x(6,13,1) + x(13,0,1) + x(13,2,1) + x(13,9,1)
                   + x(13,10,1) + x(13,17,1)  = 0
 Constraint6_14_0: - x(3,14,0) - x(4,14,0) - x(6,14,0) + x(14,0,0) + x(14,9,0)
                   + x(14,10,0) + x(14,17,0)  = 0
 Constraint6_14_1: - x(3,14,1) - x(4,14,1) - x(6,14,1) + x(14,0,1) + x(14,9,1)
                   + x(14,10,1) + x(14,17,1)  = 0
 Constraint7_5_0:  x(8,0,0) + x(8,9,0) + x(8,12,0)  = 0
 Constraint7_5_1:  x(8,0,1) + x(8,9,1) + x(8,12,1)  = 0
 Constraint7_6_0:  x(7,0,0) + x(7,9,0) + x(7,12,0)  = 0
 Constraint7_6_1:  x(7,0,1) + x(7,9,1) + x(7,12,1)  = 0
 Constraint7_7_0:  x(0,11,0) + x(2,9,0) + 2 x(2,11,0) + x(3,11,0) + x(3,13,0)
                   + x(6,11,0) + x(6,13,0) + x(12,11,0)  = 0
 Constraint7_7_1:  x(0,11,1) + x(2,9,1) + 2 x(2,11,1) + x(3,11,1) + x(3,13,1)
                   + x(6,11,1) + x(6,13,1) + x(12,11,1)  = 0
 Constraint7_8_0:  x(3,14,0) + x(4,0,0) + x(4,6,0) + x(4,9,0) + x(4,12,0)
                   + 2 x(4,14,0) + x(6,14,0)  = 0
 Constraint7_8_1:  x(3,14,1) + x(4,0,1) + x(4,6,1) + x(4,9,1) + x(4,12,1)
                   + 2 x(4,14,1) + x(6,14,1)  = 0
 Constraint7_9_0:  x(3,1,0) + x(5,0,0) + 2 x(5,1,0) + x(5,6,0) + x(5,9,0)
                   + x(5,12,0) + x(6,1,0) + x(12,1,0)  = 0
 Constraint7_9_1:  x(3,1,1) + x(5,0,1) + 2 x(5,1,1) + x(5,6,1) + x(5,9,1)
                   + x(5,12,1) + x(6,1,1) + x(12,1,1)  = 0
Bounds
 0 <= x(0,9,0) <= 1
 0 <= x(0,9,1) <= 1
 0 <= x(0,10,0) <= 1
 0 <= x(0,10,1) <= 1
 0 <= x(0,11,0) <= 1
 0 <= x(0,11,1) <= 1
 0 <= x(0,17,0) <= 1
 0 <= x(0,17,1) <= 1
 0 <= x(1,9,0) <= 1
 0 <= x(1,9,1) <= 1
 0 <= x(1,10,0) <= 1
 0 <= x(1,10,1) <= 1
 0 <= x(1,17,0) <= 1
 0 <= x(1,17,1) <= 1
 0 <= x(2,9,0) <= 1
 0 <= x(2,9,1) <= 1
 0 <= x(2,11,0) <= 1
 0 <= x(2,11,1) <= 1
 0 <= x(3,0,0) <= 1
 0 <= x(3,0,1) <= 1
 0 <= x(3,1,0) <= 1
 0 <= x(3,1,1) <= 1
 0 <= x(3,2,0) <= 1
 0 <= x(3,2,1) <= 1
 0 <= x(3,6,0) <= 1
 0 <= x(3,6,1) <= 1
 0 <= x(3,9,0) <= 1
 0 <= x(3,9,1) <= 1
 0 <= x(3,10,0) <= 1
 0 <= x(3,10,1) <= 1
 0 <= x(3,11,0) <= 1
 0 <= x(3,11,1) <= 1
 0 <= x(3,12,0) <= 1
 0 <= x(3,12,1) <= 1
 0 <= x(3,13,0) <= 1
 0 <= x(3,13,1) <= 1
 0 <= x(3,14,0) <= 1
 0 <= x(3,14,1) <= 1
 0 <= x(3,17,0) <= 1
 0 <= x(3,17,1) <= 1
 0 <= x(4,0,0) <= 1
 0 <= x(4,0,1) <= 1
 0 <= x(4,6,0) <= 1
 0 <= x(4,6,1) <= 1
 0 <= x(4,9,0) <= 1
 0 <= x(4,9,1) <= 1
 0 <= x(4,12,0) <= 1
 0 <= x(4,12,1) <= 1
 0 <= x(4,14,0) <= 1
 0 <= x(4,14,1) <= 1
 0 <= x(5,0,0) <= 1
 0 <= x(5,0,1) <= 1
 0 <= x(5,1,0) <= 1
 0 <= x(5,1,1) <= 1
 0 <= x(5,6,0) <= 1
 0 <= x(5,6,1) <= 1
 0 <= x(5,9,0) <= 1
 0 <= x(5,9,1) <= 1
 0 <= x(5,12,0) <= 1
 0 <= x(5,12,1) <= 1
 0 <= x(6,0,0) <= 1
 0 <= x(6,0,1) <= 1
 0 <= x(6,1,0) <= 1
 0 <= x(6,1,1) <= 1
 0 <= x(6,2,0) <= 1
 0 <= x(6,2,1) <= 1
 0 <= x(6,9,0) <= 1
 0 <= x(6,9,1) <= 1
 0 <= x(6,10,0) <= 1
 0 <= x(6,10,1) <= 1
 0 <= x(6,11,0) <= 1
 0 <= x(6,11,1) <= 1
 0 <= x(6,12,0) <= 1
 0 <= x(6,12,1) <= 1
 0 <= x(6,13,0) <= 1
 0 <= x(6,13,1) <= 1
 0 <= x(6,14,0) <= 1
 0 <= x(6,14,1) <= 1
 0 <= x(6,17,0) <= 1
 0 <= x(6,17,1) <= 1
 0 <= x(7,0,0) <= 1
 0 <= x(7,0,1) <= 1
 0 <= x(7,9,0) <= 1
 0 <= x(7,9,1) <= 1
 0 <= x(7,12,0) <= 1
 0 <= x(7,12,1) <= 1
 0 <= x(8,0,0) <= 1
 0 <= x(8,0,1) <= 1
 0 <= x(8,9,0) <= 1
 0 <= x(8,9,1) <= 1
 0 <= x(8,12,0) <= 1
 0 <= x(8,12,1) <= 1
 0 <= x(9,17,0) <= 1
 0 <= x(9,17,1) <= 1
 0 <= x(11,17,0) <= 1
 0 <= x(11,17,1) <= 1
 0 <= x(12,0,0) <= 1
 0 <= x(12,0,1) <= 1
 0 <= x(12,1,0) <= 1
 0 <= x(12,1,1) <= 1
 0 <= x(12,2,0) <= 1
 0 <= x(12,2,1) <= 1
 0 <= x(12,9,0) <= 1
 0 <= x(12,9,1) <= 1
 0 <= x(12,10,0) <= 1
 0 <= x(12,10,1) <= 1
 0 <= x(12,11,0) <= 1
 0 <= x(12,11,1) <= 1
 0 <= x(12,17,0) <= 1
 0 <= x(12,17,1) <= 1
 0 <= x(13,0,0) <= 1
 0 <= x(13,0,1) <= 1
 0 <= x(13,2,0) <= 1
 0 <= x(13,2,1) <= 1
 0 <= x(13,9,0) <= 1
 0 <= x(13,9,1) <= 1
 0 <= x(13,10,0) <= 1
 0 <= x(13,10,1) <= 1
 0 <= x(13,17,0) <= 1
 0 <= x(13,17,1) <= 1
 0 <= x(14,0,0) <= 1
 0 <= x(14,0,1) <= 1
 0 <= x(14,9,0) <= 1
 0 <= x(14,9,1) <= 1
 0 <= x(14,10,0) <= 1
 0 <= x(14,10,1) <= 1
 0 <= x(14,17,0) <= 1
 0 <= x(14,17,1) <= 1
 0 <= x(15,0,0) <= 1
 0 <= x(15,0,1) <= 1
 0 <= x(15,2,0) <= 1
 0 <= x(15,2,1) <= 1
 0 <= x(15,3,0) <= 1
 0 <= x(15,3,1) <= 1
 0 <= x(15,4,0) <= 1
 0 <= x(15,4,1) <= 1
 0 <= x(15,6,0) <= 1
 0 <= x(15,6,1) <= 1
 0 <= x(15,7,0) <= 1
 0 <= x(15,7,1) <= 1
 0 <= x(15,8,0) <= 1
 0 <= x(15,8,1) <= 1
 0 <= x(15,9,0) <= 1
 0 <= x(15,9,1) <= 1
 0 <= x(15,10,0) <= 1
 0 <= x(15,10,1) <= 1
 0 <= x(15,12,0) <= 1
 0 <= x(15,12,1) <= 1
 0 <= x(16,0,0) <= 1
 0 <= x(16,0,1) <= 1
 0 <= x(16,2,0) <= 1
 0 <= x(16,2,1) <= 1
 0 <= x(16,6,0) <= 1
 0 <= x(16,6,1) <= 1
 0 <= x(16,7,0) <= 1
 0 <= x(16,7,1) <= 1
 0 <= x(16,8,0) <= 1
 0 <= x(16,8,1) <= 1
 0 <= x(16,9,0) <= 1
 0 <= x(16,9,1) <= 1
 0 <= x(16,10,0) <= 1
 0 <= x(16,10,1) <= 1
 0 <= x(16,12,0) <= 1
 0 <= x(16,12,1) <= 1
Binaries
 x(0,9,0)  x(0,9,1)  x(0,10,0)  x(0,10,1)  x(0,11,0)  x(0,11,1)  x(0,17,0) 
 x(0,17,1)  x(1,9,0)  x(1,9,1)  x(1,10,0)  x(1,10,1)  x(1,17,0)  x(1,17,1) 
 x(2,9,0)  x(2,9,1)  x(2,11,0)  x(2,11,1)  x(3,0,0)  x(3,0,1)  x(3,1,0) 
 x(3,1,1)  x(3,2,0)  x(3,2,1)  x(3,6,0)  x(3,6,1)  x(3,9,0)  x(3,9,1) 
 x(3,10,0)  x(3,10,1)  x(3,11,0)  x(3,11,1)  x(3,12,0)  x(3,12,1)  x(3,13,0) 
 x(3,13,1)  x(3,14,0)  x(3,14,1)  x(3,17,0)  x(3,17,1)  x(4,0,0)  x(4,0,1) 
 x(4,6,0)  x(4,6,1)  x(4,9,0)  x(4,9,1)  x(4,12,0)  x(4,12,1)  x(4,14,0) 
 x(4,14,1)  x(5,0,0)  x(5,0,1)  x(5,1,0)  x(5,1,1)  x(5,6,0)  x(5,6,1) 
 x(5,9,0)  x(5,9,1)  x(5,12,0)  x(5,12,1)  x(6,0,0)  x(6,0,1)  x(6,1,0) 
 x(6,1,1)  x(6,2,0)  x(6,2,1)  x(6,9,0)  x(6,9,1)  x(6,10,0)  x(6,10,1) 
 x(6,11,0)  x(6,11,1)  x(6,12,0)  x(6,12,1)  x(6,13,0)  x(6,13,1)  x(6,14,0) 
 x(6,14,1)  x(6,17,0)  x(6,17,1)  x(7,0,0)  x(7,0,1)  x(7,9,0)  x(7,9,1) 
 x(7,12,0)  x(7,12,1)  x(8,0,0)  x(8,0,1)  x(8,9,0)  x(8,9,1)  x(8,12,0) 
 x(8,12,1)  x(9,17,0)  x(9,17,1)  x(11,17,0)  x(11,17,1)  x(12,0,0)  x(12,0,1) 
 x(12,1,0)  x(12,1,1)  x(12,2,0)  x(12,2,1)  x(12,9,0)  x(12,9,1)  x(12,10,0) 
 x(12,10,1)  x(12,11,0)  x(12,11,1)  x(12,17,0)  x(12,17,1)  x(13,0,0) 
 x(13,0,1)  x(13,2,0)  x(13,2,1)  x(13,9,0)  x(13,9,1)  x(13,10,0)  x(13,10,1) 
 x(13,17,0)  x(13,17,1)  x(14,0,0)  x(14,0,1)  x(14,9,0)  x(14,9,1) 
 x(14,10,0)  x(14,10,1)  x(14,17,0)  x(14,17,1)  x(15,0,0)  x(15,0,1) 
 x(15,2,0)  x(15,2,1)  x(15,3,0)  x(15,3,1)  x(15,4,0)  x(15,4,1)  x(15,6,0) 
 x(15,6,1)  x(15,7,0)  x(15,7,1)  x(15,8,0)  x(15,8,1)  x(15,9,0)  x(15,9,1) 
 x(15,10,0)  x(15,10,1)  x(15,12,0)  x(15,12,1)  x(16,0,0)  x(16,0,1) 
 x(16,2,0)  x(16,2,1)  x(16,6,0)  x(16,6,1)  x(16,7,0)  x(16,7,1)  x(16,8,0) 
 x(16,8,1)  x(16,9,0)  x(16,9,1)  x(16,10,0)  x(16,10,1)  x(16,12,0) 
 x(16,12,1) 
End
